\ENCODING=ISO-8859-1
\Problem name: IloCplex

Minimize
 obj1: 2 x_a_0 + 3 x_a_1 + 3 x_a_2 + 3 x_a_3 + x_a_4 + 2 x_a_5 + 2 x_a_6
       + 2 x_a_7 + 3 x_a_8 + 2 x_a_9 + x_a_10 + x_a_11 + 3 x_a_12 + 2 x_a_13
       + 3 x_a_14 + 2 x_a_15 + 2 x_a_16 + 2 x_a_17 + 3 x_a_18 + x_a_19 + x_a_20
       + 3 x_a_21 + x_a_22 + 3 x_a_23 + 2 x_a_24 + x_a_25 + 2 x_a_26 + 2 x_a_27
       + 3 x_a_28 + 2 x_a_29 + 3 x_a_30 + x_a_31 + 2 x_a_32 + x_a_33 + 2 x_a_34
       + 3 x_a_35 + x_a_36 + x_a_37 + x_a_38 + x_a_39 + x_a_40 + 2 x_a_41
       + 2 x_a_42 + 2 x_a_43 + 3 x_a_44 + 3 x_a_45 + x_a_46 + 2 x_a_47 + x_a_48
       + 3 x_a_49 + 2 x_a_50 + 2 x_a_51 + 2 x_a_52 + x_a_53 + x_a_54 + 3 x_a_55
       + 2 x_a_56 + x_a_57 + 3 x_a_58 + 2 x_a_59 + 2 x_a_60 + 2 x_a_61
       + 2 x_a_62 + 3 x_a_63 + 3 x_a_64 + 3 x_a_65 + 3 x_a_66 + 2 x_a_67
       + 3 x_a_68 + 2 x_a_69 + x_a_70 + 3 x_a_71 + 3 x_a_72 + 3 x_a_73
       + 3 x_a_74 + 3 x_a_75 + 3 x_a_76 + x_a_77 + 2 x_a_78 + 3 x_a_79
       + 2 x_a_80 + x_a_81 + x_a_82 + 3 x_a_83 + x_a_84 + 2 x_a_85 + x_a_86
       + 2 x_a_87 + 2 x_a_88 + 3 x_a_89 + 3 x_a_90 + x_a_91 + 3 x_a_92
       + 2 x_a_93 + 3 x_a_94 + 3 x_a_95 + 2 x_a_96 + 3 x_a_97 + 2 x_a_98
       + 2 x_a_99 + 2 x_a_100 + x_a_101 + x_a_102 + 3 x_a_103 + 2 x_a_104
       + 3 x_a_105 + 3 x_a_106 + x_a_107 + 3 x_a_108 + 2 x_a_109 + 2 x_a_110
       + 3 x_a_111 + x_a_112 + 3 x_a_113 + 2 x_a_114 + x_a_115 + 3 x_a_116
       + x_a_117 + 2 x_a_118 + 2 x_a_119 + x_a_120 + 3 x_a_121 + 3 x_a_122
       + 2 x_a_123 + x_a_124 + x_a_125 + x_a_126 + x_a_127 + x_a_128 + x_a_129
       + x_a_130 + 2 x_a_131 + 2 x_a_132 + 2 x_a_133 + x_a_134 + 3 x_a_135
       + 3 x_a_136 + x_a_137 + 3 x_a_138 + 3 x_a_139 + 3 x_a_140 + 2 x_a_141
       + 2 x_a_142 + x_a_143 + 2 x_a_144 + 2 x_a_145 + x_a_146 + x_a_147
       + x_a_148 + x_a_149 + x_a_150 + 3 x_a_151 + 2 x_a_152 + x_a_153
       + x_a_154 + 3 x_a_155 + 2 x_a_156 + 2 x_a_157 + x_a_158 + 3 x_a_159
       + 3 x_a_160 + 2 x_a_161 + x_a_162 + 2 x_a_163 + x_a_164 + x_a_165
       + 2 x_a_166 + 3 x_a_167 + 3 x_a_168 + 3 x_a_169 + x_a_170 + 2 x_a_171
       + 2 x_a_172 + 3 x_a_173 + x_a_174 + 2 x_a_175 + 2 x_a_176 + 3 x_a_177
       + x_a_178 + x_a_179 + x_a_180 + x_a_181 + 3 x_a_182 + 3 x_a_183
       + 3 x_a_184 + 3 x_a_185 + x_a_186 + x_a_187 + 3 x_a_188 + x_a_189
       + 2 x_a_190 + x_a_191 + 2 x_a_192 + 2 x_a_193 + 2 x_a_194 + x_a_195
       + 2 x_a_196 + x_a_197 + 2 x_a_198 + 3 x_a_199 + 3 x_a_200 + 3 x_a_201
       + 3 x_a_202 + 2 x_a_203 + 2 x_a_204 + 3 x_a_205 + 2 x_a_206 + x_a_207
       + 3 x_a_208 + 2 x_a_209 + 2 x_a_210 + 2 x_a_211 + 2 x_a_212 + 2 x_a_213
       + x_a_214 + 3 x_a_215 + x_a_216 + 2 x_a_217 + x_a_218 + x_a_219
       + 3 x_a_220 + 3 x_a_221 + x_a_222 + 2 x_a_223 + 2 x_a_224 + 2 x_a_225
       + 3 x_a_226 + 2 x_a_227 + 2 x_a_228 + x_a_229 + x_a_230 + x_a_231
       + 3 x_a_232 + 3 x_a_233 + x_a_234 + x_a_235 + x_a_236 + 2 x_a_237
       + 3 x_a_238 + 3 x_a_239 + x_a_240 + 2 x_a_241 + 3 x_a_242 + x_a_243
       + 2 x_a_244 + 2 x_a_245 + 3 x_a_246 + x_a_247 + x_a_248 + 2 x_a_249
       + 2 x_a_250 + x_a_251 + 3 x_a_252 + x_a_253 + 3 x_a_254 + 3 x_a_255
       + 3 x_a_256 + x_a_257 + 2 x_a_258 + 2 x_a_259 + 2 x_a_260 + x_a_261
       + 2 x_a_262 + x_a_263 + 2 x_a_264 + 3 x_a_265 + 3 x_a_266 + 2 x_a_267
       + 2 x_a_268 + 2 x_a_269 + x_a_270 + x_a_271 + 3 x_a_272 + x_a_273
       + x_a_274 + 2 x_a_275 + x_a_276 + 2 x_a_277 + 3 x_a_278 + x_a_279
       + 3 x_a_280 + 2 x_a_281 + x_a_282 + 3 x_a_283 + x_a_284 + 3 x_a_285
       + x_a_286 + 3 x_a_287 + x_a_288 + 3 x_a_289 + 2 x_a_290 + x_a_291
       + 3 x_a_292 + x_a_293 + x_a_294 + 2 x_a_295 + 2 x_a_296 + 3 x_a_297
       + 3 x_a_298 + 3 x_a_299 + 3 x_a_300 + 2 x_a_301 + 3 x_a_302 + x_a_303
       + 2 x_a_304 + x_a_305 + x_a_306 + 2 x_a_307 + x_a_308 + 2 x_a_309
       + 3 x_a_310 + 2 x_a_311 + 2 x_a_312 + 3 x_a_313 + x_a_314 + 2 x_a_315
       + 2 x_a_316 + 2 x_a_317 + 2 x_a_318 + 3 x_a_319 + 2 x_a_320 + x_a_321
       + 2 x_a_322 + x_a_323 + x_a_324 + 2 x_a_325 + 3 x_a_326 + 2 x_a_327
       + 3 x_a_328 + 2 x_a_329 + x_a_330 + 3 x_a_331 + x_a_332 + 2 x_a_333
       + 3 x_a_334 + x_a_335 + 3 x_a_336 + 3 x_a_337 + 3 x_a_338 + 3 x_a_339
       + 3 x_a_340 + 2 x_a_341 + 3 x_a_342 + 2 x_a_343 + 2 x_a_344 + 3 x_a_345
       + x_a_346 + x_a_347 + 2 x_a_348 + 2 x_a_349 + x_a_350 + 3 x_a_351
       + x_a_352 + 2 x_a_353 + 2 x_a_354 + x_a_355 + 3 x_a_356 + 2 x_a_357
       + x_a_358 + x_a_359 + x_a_360 + 2 x_a_361 + 3 x_a_362 + x_a_363
       + 3 x_a_364 + 2 x_a_365 + 3 x_a_366 + 3 x_a_367 + 2 x_a_368 + 2 x_a_369
       + 3 x_a_370 + x_a_371 + x_a_372 + 2 x_a_373 + x_a_374 + 2 x_a_375
       + 3 x_a_376 + 3 x_a_377 + x_a_378 + 3 x_a_379 + x_a_380 + x_a_381
       + 2 x_a_382 + 1000000000 x_a_383 + 1000000000 x_a_384
       + 1000000000 x_a_385 + 1000000000 x_a_386 + 1000000000 x_a_387
       + 1000000000 x_a_388 + 1000000000 x_a_389 + 1000000000 x_a_390
       + 1000000000 x_a_391 + 1000000000 x_a_392 + 1000000000 x_a_393
       + 1000000000 x_a_394 + 1000000000 x_a_395 + 1000000000 x_a_396
       + 1000000000 x_a_397 + 1000000000 x_a_398 + 1000000000 x_a_399
       + 1000000000 x_a_400 + 1000000000 x_a_401 + 1000000000 x_a_402
       + 10000 x_a_403
Subject To
 c1:   y_a_383 + y_a_384 + y_a_385 + y_a_386 + y_a_387 + y_a_388 + y_a_389
       + y_a_390 + y_a_391 + y_a_392 <= 336
 c2:   y_a_0 + y_a_1 + y_a_2 + y_a_3 + y_a_4 + y_a_5 + y_a_6 + y_a_7 + y_a_8
       + y_a_9 + y_a_10 + y_a_11 + y_a_12 + y_a_13 + y_a_14 + y_a_15 + y_a_16
       + y_a_17 + y_a_18  = 0
 c3:   - y_a_0 + y_a_19 + y_a_20 + y_a_21 + y_a_22 + y_a_23 + y_a_24 + y_a_25
       + y_a_26 + y_a_27 + y_a_28 + y_a_29 + y_a_30 + y_a_31 + y_a_32 + y_a_33
       + y_a_34 + y_a_35 + y_a_36 + y_a_37  = 0
 c4:   - y_a_1 - y_a_19 + y_a_38 + y_a_39 + y_a_40 + y_a_41 + y_a_42 + y_a_43
       + y_a_44 + y_a_45 + y_a_46 + y_a_47 + y_a_48 + y_a_49 + y_a_50 + y_a_51
       + y_a_52 + y_a_53 + y_a_54 + y_a_55 + y_a_56 + y_a_394  = 0
 c5:   - y_a_38 + y_a_57 + y_a_58 + y_a_59 + y_a_60 + y_a_61 + y_a_62 + y_a_63
       + y_a_64 + y_a_65 + y_a_66 + y_a_67 + y_a_68 + y_a_69 + y_a_70 + y_a_71
       + y_a_72 + y_a_398  = 0
 c6:   - y_a_39 - y_a_57 + y_a_73 + y_a_74 + y_a_75 + y_a_76 + y_a_77 + y_a_78
       + y_a_79 + y_a_80 + y_a_81 + y_a_82 + y_a_83  = 0
 c7:   - y_a_390 - y_a_2 - y_a_20 - y_a_58 - y_a_73 + y_a_84 + y_a_85 + y_a_86
       + y_a_87 + y_a_88 + y_a_89 + y_a_90 + y_a_91 + y_a_92 + y_a_93 + y_a_94
       + y_a_95 + y_a_96 + y_a_97 + y_a_98 + y_a_99  = 0
 c8:   - y_a_389 - y_a_3 - y_a_40 - y_a_84 + y_a_100 + y_a_101 + y_a_102
       + y_a_103 + y_a_104 + y_a_105 + y_a_106 + y_a_107 + y_a_108 + y_a_109
       + y_a_110 + y_a_111  = 0
 c9:   - y_a_4 - y_a_21 - y_a_41 - y_a_100 + y_a_112 + y_a_113 + y_a_114
       + y_a_115 + y_a_116 + y_a_117 + y_a_118 + y_a_119 + y_a_120 + y_a_121
       + y_a_122 + y_a_123 + y_a_124 + y_a_125 + y_a_126 + y_a_127 + y_a_396
        = 0
 c10:  - y_a_5 - y_a_22 - y_a_101 - y_a_112 + y_a_128 + y_a_129 + y_a_130
       + y_a_131 + y_a_132 + y_a_133 + y_a_134 + y_a_135 + y_a_136 + y_a_137
        = 0
 c11:  - y_a_59 - y_a_74 - y_a_85 + y_a_138 + y_a_139 + y_a_140 + y_a_141
       + y_a_142 + y_a_143 + y_a_144 + y_a_145 + y_a_146 + y_a_147 + y_a_393
        = 0
 c12:  - y_a_86 - y_a_113 + y_a_148 + y_a_149 + y_a_150 + y_a_151 + y_a_152
       + y_a_153 + y_a_154 + y_a_155 + y_a_156 + y_a_157 + y_a_158 + y_a_159
       + y_a_160 + y_a_161  = 0
 c13:  - y_a_386 - y_a_42 - y_a_87 - y_a_114 + y_a_162 + y_a_163 + y_a_164
       + y_a_165 + y_a_166 + y_a_167 + y_a_168 + y_a_169 + y_a_170 + y_a_171
       + y_a_172 + y_a_173 + y_a_174 + y_a_175 + y_a_176 + y_a_177  = 0
 c14:  - y_a_388 - y_a_6 - y_a_43 - y_a_60 - y_a_148 - y_a_162 + y_a_178
       + y_a_179 + y_a_180 + y_a_181 + y_a_182 + y_a_183 + y_a_184 + y_a_185
       + y_a_186 + y_a_187 + y_a_188  = 0
 c15:  - y_a_7 - y_a_75 - y_a_102 - y_a_115 + y_a_189 + y_a_190 + y_a_191
       + y_a_192 + y_a_193 + y_a_194 + y_a_395  = 0
 c16:  - y_a_8 - y_a_44 - y_a_61 - y_a_116 - y_a_138 - y_a_149 + y_a_195
       + y_a_196 + y_a_197 + y_a_198 + y_a_199 + y_a_200 + y_a_201 + y_a_202
       + y_a_203 + y_a_204 + y_a_205 + y_a_206  = 0
 c17:  - y_a_23 - y_a_45 - y_a_62 - y_a_76 - y_a_117 - y_a_139 - y_a_150
       - y_a_163 - y_a_178 - y_a_195 + y_a_207 + y_a_208 + y_a_209 + y_a_210
       + y_a_211 + y_a_212 + y_a_213 + y_a_214 + y_a_215  = 0
 c18:  - y_a_24 - y_a_63 - y_a_77 - y_a_103 - y_a_189 - y_a_196 + y_a_216
       + y_a_217 + y_a_218 + y_a_219 + y_a_220  = 0
 c19:  - y_a_46 - y_a_104 - y_a_140 - y_a_151 - y_a_164 - y_a_179 - y_a_207
       - y_a_216 + y_a_221 + y_a_222 + y_a_223 + y_a_224 + y_a_225 + y_a_226
       + y_a_227 + y_a_228 + y_a_229 + y_a_230 + y_a_231 + y_a_402  = 0
 c20:  - y_a_383 - y_a_25 - y_a_47 - y_a_88 - y_a_105 - y_a_221 + y_a_232
       + y_a_233 + y_a_234 + y_a_235 + y_a_236 + y_a_237 + y_a_238 + y_a_239
       + y_a_240 + y_a_241  = 0
 c21:  - y_a_26 - y_a_48 - y_a_64 - y_a_89 - y_a_128 - y_a_152 - y_a_165
       + y_a_242 + y_a_243 + y_a_244 + y_a_245 + y_a_246 + y_a_247 + y_a_248
       + y_a_249 + y_a_250 + y_a_251  = 0
 c22:  - y_a_65 - y_a_106 - y_a_118 - y_a_141 - y_a_153 - y_a_166 - y_a_190
       - y_a_208 - y_a_232 + y_a_252 + y_a_253 + y_a_254 + y_a_255 + y_a_256
       + y_a_257 + y_a_258 + y_a_259 + y_a_260 + y_a_261 + y_a_262 + y_a_263
        = 0
 c23:  - y_a_9 - y_a_27 - y_a_119 - y_a_154 - y_a_180 - y_a_222 - y_a_242
       - y_a_252 + y_a_264 + y_a_265 + y_a_266 + y_a_267 + y_a_268 + y_a_269
       + y_a_270 + y_a_271 + y_a_272 + y_a_273 + y_a_274  = 0
 c24:  - y_a_28 - y_a_49 - y_a_90 - y_a_107 - y_a_120 - y_a_209 - y_a_223
       + y_a_275 + y_a_276 + y_a_277 + y_a_278 + y_a_279 + y_a_280 + y_a_281
       + y_a_282  = 0
 c25:  - y_a_78 - y_a_155 - y_a_167 - y_a_197 - y_a_253 - y_a_275 + y_a_283
       + y_a_284 + y_a_285 + y_a_286 + y_a_287 + y_a_288 + y_a_289 + y_a_290
       + y_a_291 + y_a_292  = 0
 c26:  - y_a_29 - y_a_91 - y_a_121 - y_a_129 - y_a_142 - y_a_181 - y_a_233
       - y_a_254 - y_a_276 + y_a_293 + y_a_294 + y_a_295 + y_a_296 + y_a_297
        = 0
 c27:  - y_a_108 - y_a_156 - y_a_198 - y_a_210 - y_a_264 - y_a_277 - y_a_283
       + y_a_298 + y_a_299 + y_a_300 + y_a_301 + y_a_302 + y_a_303 + y_a_304
       + y_a_305 + y_a_399 + y_a_401  = 0
 c28:  - y_a_30 - y_a_50 - y_a_182 - y_a_191 - y_a_234 - y_a_284 + y_a_306
       + y_a_307 + y_a_308 + y_a_309  = 0
 c29:  - y_a_31 - y_a_51 - y_a_79 - y_a_92 - y_a_143 - y_a_157 - y_a_168
       - y_a_199 - y_a_211 - y_a_224 - y_a_243 - y_a_265 - y_a_285 - y_a_293
       + y_a_310 + y_a_311 + y_a_312 + y_a_313  = 0
 c30:  - y_a_52 - y_a_130 - y_a_158 - y_a_200 - y_a_235 - y_a_244 - y_a_255
       - y_a_294 - y_a_298 + y_a_314 + y_a_315 + y_a_316 + y_a_317 + y_a_318
        = 0
 c31:  - y_a_385 - y_a_10 - y_a_32 - y_a_53 - y_a_93 - y_a_109 - y_a_122
       - y_a_131 - y_a_169 - y_a_225 - y_a_278 - y_a_299 - y_a_310 + y_a_319
       + y_a_320 + y_a_321 + y_a_322 + y_a_323 + y_a_324 + y_a_325 + y_a_326
       + y_a_327  = 0
 c32:  - y_a_80 - y_a_123 - y_a_132 - y_a_159 - y_a_245 - y_a_286 - y_a_300
       - y_a_314 - y_a_319 + y_a_328 + y_a_329 + y_a_330 + y_a_331 + y_a_332
       + y_a_397  = 0
 c33:  - y_a_11 - y_a_124 - y_a_201 - y_a_217 - y_a_246 - y_a_266 - y_a_301
       - y_a_320 - y_a_328 + y_a_333 + y_a_334 + y_a_335 + y_a_336 + y_a_337
        = 0
 c34:  - y_a_12 - y_a_33 - y_a_66 - y_a_133 - y_a_202 - y_a_226 - y_a_256
       - y_a_267 - y_a_287 - y_a_295 + y_a_338 + y_a_339 + y_a_340 + y_a_341
       + y_a_342 + y_a_400  = 0
 c35:  - y_a_34 - y_a_54 - y_a_67 - y_a_94 - y_a_110 - y_a_134 - y_a_170
       - y_a_302 - y_a_311 - y_a_338 + y_a_343 + y_a_344 + y_a_345 + y_a_346
       + y_a_347 + y_a_348 + y_a_349  = 0
 c36:  - y_a_13 - y_a_35 - y_a_171 - y_a_203 - y_a_212 - y_a_218 - y_a_227
       - y_a_236 - y_a_247 - y_a_268 - y_a_296 - y_a_315 - y_a_321 - y_a_343
       + y_a_350 + y_a_351 + y_a_352 + y_a_353 + y_a_354  = 0
 c37:  - y_a_14 - y_a_36 - y_a_55 - y_a_68 - y_a_95 - y_a_183 - y_a_228
       - y_a_248 - y_a_257 - y_a_269 - y_a_297 - y_a_322 - y_a_333 - y_a_344
       - y_a_350 + y_a_355  = 0
 c38:  - y_a_15 - y_a_56 - y_a_69 - y_a_96 - y_a_135 - y_a_144 - y_a_172
       - y_a_192 - y_a_258 - y_a_279 - y_a_323 - y_a_329 - y_a_334 - y_a_351
       + y_a_356 + y_a_357 + y_a_358 + y_a_359  = 0
 c39:  - y_a_387 - y_a_173 - y_a_184 - y_a_204 - y_a_219 - y_a_259 - y_a_270
       - y_a_280 - y_a_316 + y_a_360 + y_a_361 + y_a_362 + y_a_363  = 0
 c40:  - y_a_16 - y_a_81 - y_a_136 - y_a_237 - y_a_249 - y_a_288 - y_a_324
       - y_a_356 + y_a_364 + y_a_365 + y_a_366  = 0
 c41:  - y_a_145 - y_a_174 - y_a_260 - y_a_271 - y_a_325 - y_a_330 - y_a_364
        = 0
 c42:  - y_a_82 - y_a_125 - y_a_205 - y_a_229 - y_a_238 - y_a_289 - y_a_303
       - y_a_312 - y_a_335 - y_a_360 - y_a_365 + y_a_367 + y_a_368 + y_a_369
       + y_a_370 + y_a_371  = 0
 c43:  - y_a_17 - y_a_37 - y_a_175 - y_a_230 - y_a_239 - y_a_272 - y_a_290
       - y_a_306 - y_a_339 - y_a_345 - y_a_367 + y_a_372 + y_a_373  = 0
 c44:  - y_a_384 - y_a_391 - y_a_126 - y_a_185 - y_a_261 - y_a_291 - y_a_307
       - y_a_326 - y_a_340 - y_a_352 - y_a_361 - y_a_372 + y_a_374 + y_a_375
       + y_a_376 + y_a_377  = 0
 c45:  - y_a_70 - y_a_83 - y_a_97 - y_a_250 - y_a_262 - y_a_273 - y_a_304
       - y_a_313 - y_a_336 - y_a_341 - y_a_346 - y_a_368 - y_a_373 - y_a_374
       + y_a_378 + y_a_379  = 0
 c46:  - y_a_18 - y_a_71 - y_a_98 - y_a_111 - y_a_146 - y_a_176 - y_a_193
       - y_a_213 - y_a_308 - y_a_347 - y_a_353 - y_a_357 - y_a_362 - y_a_369
       - y_a_375 - y_a_378 + y_a_380 + y_a_381  = 0
 c47:  - y_a_72 - y_a_99 - y_a_160 - y_a_186 - y_a_214 - y_a_231 - y_a_263
       - y_a_274 - y_a_281 - y_a_305 - y_a_317 - y_a_337 - y_a_348 - y_a_366
       - y_a_370 - y_a_376 - y_a_379  = 0
 c48:  - y_a_127 - y_a_137 - y_a_177 - y_a_187 - y_a_194 - y_a_206 - y_a_240
       - y_a_292 - y_a_309 - y_a_327 - y_a_331 - y_a_342 - y_a_349 - y_a_355
       - y_a_358 - y_a_371 - y_a_380 + y_a_382  = 0
 c49:  - y_a_147 - y_a_161 - y_a_188 - y_a_215 - y_a_220 - y_a_241 - y_a_251
       - y_a_282 - y_a_318 - y_a_332 - y_a_354 - y_a_359 - y_a_363 - y_a_377
       - y_a_381 - y_a_382  = 0
 c50:  y_a_383 + y_a_384 + y_a_385 + y_a_386 + y_a_387 + y_a_388 + y_a_389
       + y_a_390 + y_a_391 - y_a_403  = 0
 c51:  - y_a_394 - y_a_398 - y_a_396 - y_a_393 - y_a_395 - y_a_402 - y_a_399
       - y_a_401 - y_a_397 - y_a_400 + y_a_403  = 0
 c52:  y_a_0 + 44 x_a_0 <= 44
 c53:  y_a_1 + 21 x_a_1 <= 21
 c54:  y_a_2 + 46 x_a_2 <= 46
 c55:  y_a_3 + 49 x_a_3 <= 49
 c56:  y_a_4 + 24 x_a_4 <= 24
 c57:  y_a_5 + 6 x_a_5 <= 6
 c58:  y_a_6 + 14 x_a_6 <= 14
 c59:  y_a_7 + 26 x_a_7 <= 26
 c60:  y_a_8 + 18 x_a_8 <= 18
 c61:  y_a_9 + 7 x_a_9 <= 7
 c62:  y_a_10 + 11 x_a_10 <= 11
 c63:  y_a_11 + 20 x_a_11 <= 20
 c64:  y_a_12 + 8 x_a_12 <= 8
 c65:  y_a_13 + 9 x_a_13 <= 9
 c66:  y_a_14 + 37 x_a_14 <= 37
 c67:  y_a_15 + 44 x_a_15 <= 44
 c68:  y_a_16 + 24 x_a_16 <= 24
 c69:  y_a_17 + 47 x_a_17 <= 47
 c70:  y_a_18 + 19 x_a_18 <= 19
 c71:  y_a_19 + 48 x_a_19 <= 48
 c72:  y_a_20 + 29 x_a_20 <= 29
 c73:  y_a_21 + 24 x_a_21 <= 24
 c74:  y_a_22 + 34 x_a_22 <= 34
 c75:  y_a_23 + 2 x_a_23 <= 2
 c76:  y_a_24 + 21 x_a_24 <= 21
 c77:  y_a_25 + 33 x_a_25 <= 33
 c78:  y_a_26 + 19 x_a_26 <= 19
 c79:  y_a_27 + 4 x_a_27 <= 4
 c80:  y_a_28 + 24 x_a_28 <= 24
 c81:  y_a_29 + 8 x_a_29 <= 8
 c82:  y_a_30 + 6 x_a_30 <= 6
 c83:  y_a_31 + 33 x_a_31 <= 33
 c84:  y_a_32 + 26 x_a_32 <= 26
 c85:  y_a_33 + 39 x_a_33 <= 39
 c86:  y_a_34 + 3 x_a_34 <= 3
 c87:  y_a_35 + 30 x_a_35 <= 30
 c88:  y_a_36 + 42 x_a_36 <= 42
 c89:  y_a_37 + 34 x_a_37 <= 34
 c90:  y_a_38 + 17 x_a_38 <= 17
 c91:  y_a_39 + 48 x_a_39 <= 48
 c92:  y_a_40 + 47 x_a_40 <= 47
 c93:  y_a_41 + 18 x_a_41 <= 18
 c94:  y_a_42 + 22 x_a_42 <= 22
 c95:  y_a_43 + 26 x_a_43 <= 26
 c96:  y_a_44 + 36 x_a_44 <= 36
 c97:  y_a_45 + 25 x_a_45 <= 25
 c98:  y_a_46 + 29 x_a_46 <= 29
 c99:  y_a_47 + 5 x_a_47 <= 5
 c100: y_a_48 + 14 x_a_48 <= 14
 c101: y_a_49 + 5 x_a_49 <= 5
 c102: y_a_50 + x_a_50 <= 1
 c103: y_a_51 + 45 x_a_51 <= 45
 c104: y_a_52 + 46 x_a_52 <= 46
 c105: y_a_53 + 20 x_a_53 <= 20
 c106: y_a_54 + 21 x_a_54 <= 21
 c107: y_a_55 + 41 x_a_55 <= 41
 c108: y_a_56 + 26 x_a_56 <= 26
 c109: y_a_57 + 6 x_a_57 <= 6
 c110: y_a_58 + 6 x_a_58 <= 6
 c111: y_a_59 + 20 x_a_59 <= 20
 c112: y_a_60 + 16 x_a_60 <= 16
 c113: y_a_61 + 49 x_a_61 <= 49
 c114: y_a_62 + 28 x_a_62 <= 28
 c115: y_a_63 + 8 x_a_63 <= 8
 c116: y_a_64 + 30 x_a_64 <= 30
 c117: y_a_65 + 44 x_a_65 <= 44
 c118: y_a_66 + 11 x_a_66 <= 11
 c119: y_a_67 + 8 x_a_67 <= 8
 c120: y_a_68 + 21 x_a_68 <= 21
 c121: y_a_69 + 37 x_a_69 <= 37
 c122: y_a_70 + 29 x_a_70 <= 29
 c123: y_a_71 + 3 x_a_71 <= 3
 c124: y_a_72 + 3 x_a_72 <= 3
 c125: y_a_73 + 44 x_a_73 <= 44
 c126: y_a_74 + 15 x_a_74 <= 15
 c127: y_a_75 + 44 x_a_75 <= 44
 c128: y_a_76 + 7 x_a_76 <= 7
 c129: y_a_77 + 45 x_a_77 <= 45
 c130: y_a_78 + 9 x_a_78 <= 9
 c131: y_a_79 + 44 x_a_79 <= 44
 c132: y_a_80 + 33 x_a_80 <= 33
 c133: y_a_81 + 40 x_a_81 <= 40
 c134: y_a_82 + 31 x_a_82 <= 31
 c135: y_a_83 + 48 x_a_83 <= 48
 c136: y_a_84 + 8 x_a_84 <= 8
 c137: y_a_85 + 16 x_a_85 <= 16
 c138: y_a_86 + 16 x_a_86 <= 16
 c139: y_a_87 + 2 x_a_87 <= 2
 c140: y_a_88 + 5 x_a_88 <= 5
 c141: y_a_89 + 13 x_a_89 <= 13
 c142: y_a_90 + 7 x_a_90 <= 7
 c143: y_a_91 + 36 x_a_91 <= 36
 c144: y_a_92 + 22 x_a_92 <= 22
 c145: y_a_93 + 6 x_a_93 <= 6
 c146: y_a_94 + 18 x_a_94 <= 18
 c147: y_a_95 + 36 x_a_95 <= 36
 c148: y_a_96 + 21 x_a_96 <= 21
 c149: y_a_97 + 9 x_a_97 <= 9
 c150: y_a_98 + 34 x_a_98 <= 34
 c151: y_a_99 + 33 x_a_99 <= 33
 c152: y_a_100 + 14 x_a_100 <= 14
 c153: y_a_101 + 34 x_a_101 <= 34
 c154: y_a_102 + 28 x_a_102 <= 28
 c155: y_a_103 + 19 x_a_103 <= 19
 c156: y_a_104 + 48 x_a_104 <= 48
 c157: y_a_105 + 46 x_a_105 <= 46
 c158: y_a_106 + 6 x_a_106 <= 6
 c159: y_a_107 + 44 x_a_107 <= 44
 c160: y_a_108 + 14 x_a_108 <= 14
 c161: y_a_109 + 42 x_a_109 <= 42
 c162: y_a_110 + 40 x_a_110 <= 40
 c163: y_a_111 + 32 x_a_111 <= 32
 c164: y_a_112 + 39 x_a_112 <= 39
 c165: y_a_113 + 43 x_a_113 <= 43
 c166: y_a_114 + 38 x_a_114 <= 38
 c167: y_a_115 + 43 x_a_115 <= 43
 c168: y_a_116 + 45 x_a_116 <= 45
 c169: y_a_117 + 9 x_a_117 <= 9
 c170: y_a_118 + 43 x_a_118 <= 43
 c171: y_a_119 + 29 x_a_119 <= 29
 c172: y_a_120 + 23 x_a_120 <= 23
 c173: y_a_121 + 41 x_a_121 <= 41
 c174: y_a_122 + 19 x_a_122 <= 19
 c175: y_a_123 + 6 x_a_123 <= 6
 c176: y_a_124 + 37 x_a_124 <= 37
 c177: y_a_125 + 21 x_a_125 <= 21
 c178: y_a_126 + 7 x_a_126 <= 7
 c179: y_a_127 + 9 x_a_127 <= 9
 c180: y_a_128 + 6 x_a_128 <= 6
 c181: y_a_129 + 38 x_a_129 <= 38
 c182: y_a_130 + 43 x_a_130 <= 43
 c183: y_a_131 + 9 x_a_131 <= 9
 c184: y_a_132 + 40 x_a_132 <= 40
 c185: y_a_133 + 18 x_a_133 <= 18
 c186: y_a_134 + 36 x_a_134 <= 36
 c187: y_a_135 + 11 x_a_135 <= 11
 c188: y_a_136 + 36 x_a_136 <= 36
 c189: y_a_137 + 39 x_a_137 <= 39
 c190: y_a_138 + 39 x_a_138 <= 39
 c191: y_a_139 + 44 x_a_139 <= 44
 c192: y_a_140 + 33 x_a_140 <= 33
 c193: y_a_141 + 21 x_a_141 <= 21
 c194: y_a_142 + 49 x_a_142 <= 49
 c195: y_a_143 + 11 x_a_143 <= 11
 c196: y_a_144 + 48 x_a_144 <= 48
 c197: y_a_145 + 11 x_a_145 <= 11
 c198: y_a_146 + 44 x_a_146 <= 44
 c199: y_a_147 + 41 x_a_147 <= 41
 c200: y_a_148 + 11 x_a_148 <= 11
 c201: y_a_149 + 21 x_a_149 <= 21
 c202: y_a_150 + 33 x_a_150 <= 33
 c203: y_a_151 + 34 x_a_151 <= 34
 c204: y_a_152 + 23 x_a_152 <= 23
 c205: y_a_153 + 18 x_a_153 <= 18
 c206: y_a_154 + 14 x_a_154 <= 14
 c207: y_a_155 + 41 x_a_155 <= 41
 c208: y_a_156 + 45 x_a_156 <= 45
 c209: y_a_157 + 22 x_a_157 <= 22
 c210: y_a_158 + 19 x_a_158 <= 19
 c211: y_a_159 + 7 x_a_159 <= 7
 c212: y_a_160 + 43 x_a_160 <= 43
 c213: y_a_161 + 47 x_a_161 <= 47
 c214: y_a_162 + 48 x_a_162 <= 48
 c215: y_a_163 + 41 x_a_163 <= 41
 c216: y_a_164 + 25 x_a_164 <= 25
 c217: y_a_165 + 33 x_a_165 <= 33
 c218: y_a_166 + 13 x_a_166 <= 13
 c219: y_a_167 + 29 x_a_167 <= 29
 c220: y_a_168 + 11 x_a_168 <= 11
 c221: y_a_169 + 12 x_a_169 <= 12
 c222: y_a_170 + 25 x_a_170 <= 25
 c223: y_a_171 + 48 x_a_171 <= 48
 c224: y_a_172 + 12 x_a_172 <= 12
 c225: y_a_173 + 27 x_a_173 <= 27
 c226: y_a_174 + 37 x_a_174 <= 37
 c227: y_a_175 + 46 x_a_175 <= 46
 c228: y_a_176 + 2 x_a_176 <= 2
 c229: y_a_177 + 44 x_a_177 <= 44
 c230: y_a_178 + 41 x_a_178 <= 41
 c231: y_a_179 + 15 x_a_179 <= 15
 c232: y_a_180 + 40 x_a_180 <= 40
 c233: y_a_181 + 37 x_a_181 <= 37
 c234: y_a_182 + 6 x_a_182 <= 6
 c235: y_a_183 + 28 x_a_183 <= 28
 c236: y_a_184 + 37 x_a_184 <= 37
 c237: y_a_185 + 24 x_a_185 <= 24
 c238: y_a_186 + 36 x_a_186 <= 36
 c239: y_a_187 + 43 x_a_187 <= 43
 c240: y_a_188 + 42 x_a_188 <= 42
 c241: y_a_189 + 7 x_a_189 <= 7
 c242: y_a_190 + 32 x_a_190 <= 32
 c243: y_a_191 + 7 x_a_191 <= 7
 c244: y_a_192 + 29 x_a_192 <= 29
 c245: y_a_193 + 10 x_a_193 <= 10
 c246: y_a_194 + 15 x_a_194 <= 15
 c247: y_a_195 + 23 x_a_195 <= 23
 c248: y_a_196 + 17 x_a_196 <= 17
 c249: y_a_197 + x_a_197 <= 1
 c250: y_a_198 + 31 x_a_198 <= 31
 c251: y_a_199 + 25 x_a_199 <= 25
 c252: y_a_200 + 30 x_a_200 <= 30
 c253: y_a_201 + 40 x_a_201 <= 40
 c254: y_a_202 + 48 x_a_202 <= 48
 c255: y_a_203 + 41 x_a_203 <= 41
 c256: y_a_204 + 11 x_a_204 <= 11
 c257: y_a_205 + 33 x_a_205 <= 33
 c258: y_a_206 + 18 x_a_206 <= 18
 c259: y_a_207 + 9 x_a_207 <= 9
 c260: y_a_208 + 31 x_a_208 <= 31
 c261: y_a_209 + 36 x_a_209 <= 36
 c262: y_a_210 + 41 x_a_210 <= 41
 c263: y_a_211 + 26 x_a_211 <= 26
 c264: y_a_212 + 27 x_a_212 <= 27
 c265: y_a_213 + 43 x_a_213 <= 43
 c266: y_a_214 + 48 x_a_214 <= 48
 c267: y_a_215 + 32 x_a_215 <= 32
 c268: y_a_216 + 2 x_a_216 <= 2
 c269: y_a_217 + 3 x_a_217 <= 3
 c270: y_a_218 + 14 x_a_218 <= 14
 c271: y_a_219 + 18 x_a_219 <= 18
 c272: y_a_220 + 18 x_a_220 <= 18
 c273: y_a_221 + 28 x_a_221 <= 28
 c274: y_a_222 + 40 x_a_222 <= 40
 c275: y_a_223 + 23 x_a_223 <= 23
 c276: y_a_224 + 45 x_a_224 <= 45
 c277: y_a_225 + 35 x_a_225 <= 35
 c278: y_a_226 + 38 x_a_226 <= 38
 c279: y_a_227 + 42 x_a_227 <= 42
 c280: y_a_228 + 21 x_a_228 <= 21
 c281: y_a_229 + 25 x_a_229 <= 25
 c282: y_a_230 + 12 x_a_230 <= 12
 c283: y_a_231 + 17 x_a_231 <= 17
 c284: y_a_232 + 37 x_a_232 <= 37
 c285: y_a_233 + 42 x_a_233 <= 42
 c286: y_a_234 + 4 x_a_234 <= 4
 c287: y_a_235 + 32 x_a_235 <= 32
 c288: y_a_236 + 4 x_a_236 <= 4
 c289: y_a_237 + 4 x_a_237 <= 4
 c290: y_a_238 + 18 x_a_238 <= 18
 c291: y_a_239 + 4 x_a_239 <= 4
 c292: y_a_240 + 32 x_a_240 <= 32
 c293: y_a_241 + 9 x_a_241 <= 9
 c294: y_a_242 + 15 x_a_242 <= 15
 c295: y_a_243 + 19 x_a_243 <= 19
 c296: y_a_244 + 38 x_a_244 <= 38
 c297: y_a_245 + 39 x_a_245 <= 39
 c298: y_a_246 + 30 x_a_246 <= 30
 c299: y_a_247 + 46 x_a_247 <= 46
 c300: y_a_248 + 10 x_a_248 <= 10
 c301: y_a_249 + 13 x_a_249 <= 13
 c302: y_a_250 + 42 x_a_250 <= 42
 c303: y_a_251 + 16 x_a_251 <= 16
 c304: y_a_252 + 32 x_a_252 <= 32
 c305: y_a_253 + 8 x_a_253 <= 8
 c306: y_a_254 + 5 x_a_254 <= 5
 c307: y_a_255 + 37 x_a_255 <= 37
 c308: y_a_256 + 20 x_a_256 <= 20
 c309: y_a_257 + 41 x_a_257 <= 41
 c310: y_a_258 + 3 x_a_258 <= 3
 c311: y_a_259 + 41 x_a_259 <= 41
 c312: y_a_260 + 27 x_a_260 <= 27
 c313: y_a_261 + 8 x_a_261 <= 8
 c314: y_a_262 + 2 x_a_262 <= 2
 c315: y_a_263 + 9 x_a_263 <= 9
 c316: y_a_264 + 31 x_a_264 <= 31
 c317: y_a_265 + 16 x_a_265 <= 16
 c318: y_a_266 + 30 x_a_266 <= 30
 c319: y_a_267 + 29 x_a_267 <= 29
 c320: y_a_268 + 29 x_a_268 <= 29
 c321: y_a_269 + 44 x_a_269 <= 44
 c322: y_a_270 + 44 x_a_270 <= 44
 c323: y_a_271 + 2 x_a_271 <= 2
 c324: y_a_272 + 28 x_a_272 <= 28
 c325: y_a_273 + 9 x_a_273 <= 9
 c326: y_a_274 + 13 x_a_274 <= 13
 c327: y_a_275 + 25 x_a_275 <= 25
 c328: y_a_276 + 21 x_a_276 <= 21
 c329: y_a_277 + 29 x_a_277 <= 29
 c330: y_a_278 + 49 x_a_278 <= 49
 c331: y_a_279 + 45 x_a_279 <= 45
 c332: y_a_280 + 39 x_a_280 <= 39
 c333: y_a_281 + 22 x_a_281 <= 22
 c334: y_a_282 + 28 x_a_282 <= 28
 c335: y_a_283 + 7 x_a_283 <= 7
 c336: y_a_284 + 18 x_a_284 <= 18
 c337: y_a_285 + 46 x_a_285 <= 46
 c338: y_a_286 + 42 x_a_286 <= 42
 c339: y_a_287 + 35 x_a_287 <= 35
 c340: y_a_288 + 4 x_a_288 <= 4
 c341: y_a_289 + 32 x_a_289 <= 32
 c342: y_a_290 + 40 x_a_290 <= 40
 c343: y_a_291 + 38 x_a_291 <= 38
 c344: y_a_292 + 4 x_a_292 <= 4
 c345: y_a_293 + 5 x_a_293 <= 5
 c346: y_a_294 + 44 x_a_294 <= 44
 c347: y_a_295 + 18 x_a_295 <= 18
 c348: y_a_296 + 38 x_a_296 <= 38
 c349: y_a_297 + 39 x_a_297 <= 39
 c350: y_a_298 + 11 x_a_298 <= 11
 c351: y_a_299 + 36 x_a_299 <= 36
 c352: y_a_300 + 41 x_a_300 <= 41
 c353: y_a_301 + 37 x_a_301 <= 37
 c354: y_a_302 + 14 x_a_302 <= 14
 c355: y_a_303 + 44 x_a_303 <= 44
 c356: y_a_304 + 14 x_a_304 <= 14
 c357: y_a_305 + 18 x_a_305 <= 18
 c358: y_a_306 + 25 x_a_306 <= 25
 c359: y_a_307 + 29 x_a_307 <= 29
 c360: y_a_308 + 14 x_a_308 <= 14
 c361: y_a_309 + 38 x_a_309 <= 38
 c362: y_a_310 + 39 x_a_310 <= 39
 c363: y_a_311 + 47 x_a_311 <= 47
 c364: y_a_312 + 48 x_a_312 <= 48
 c365: y_a_313 + 5 x_a_313 <= 5
 c366: y_a_314 + 27 x_a_314 <= 27
 c367: y_a_315 + 26 x_a_315 <= 26
 c368: y_a_316 + 14 x_a_316 <= 14
 c369: y_a_317 + 19 x_a_317 <= 19
 c370: y_a_318 + 20 x_a_318 <= 20
 c371: y_a_319 + 43 x_a_319 <= 43
 c372: y_a_320 + 26 x_a_320 <= 26
 c373: y_a_321 + 20 x_a_321 <= 20
 c374: y_a_322 + 16 x_a_322 <= 16
 c375: y_a_323 + 15 x_a_323 <= 15
 c376: y_a_324 + 35 x_a_324 <= 35
 c377: y_a_325 + 40 x_a_325 <= 40
 c378: y_a_326 + 9 x_a_326 <= 9
 c379: y_a_327 + 47 x_a_327 <= 47
 c380: y_a_328 + 41 x_a_328 <= 41
 c381: y_a_329 + 18 x_a_329 <= 18
 c382: y_a_330 + 38 x_a_330 <= 38
 c383: y_a_331 + 22 x_a_331 <= 22
 c384: y_a_332 + 42 x_a_332 <= 42
 c385: y_a_333 + 5 x_a_333 <= 5
 c386: y_a_334 + 29 x_a_334 <= 29
 c387: y_a_335 + 40 x_a_335 <= 40
 c388: y_a_336 + 37 x_a_336 <= 37
 c389: y_a_337 + 21 x_a_337 <= 21
 c390: y_a_338 + x_a_338 <= 1
 c391: y_a_339 + x_a_339 <= 1
 c392: y_a_340 + 43 x_a_340 <= 43
 c393: y_a_341 + 5 x_a_341 <= 5
 c394: y_a_342 + 37 x_a_342 <= 37
 c395: y_a_343 + 37 x_a_343 <= 37
 c396: y_a_344 + 22 x_a_344 <= 22
 c397: y_a_345 + 46 x_a_345 <= 46
 c398: y_a_346 + 25 x_a_346 <= 25
 c399: y_a_347 + 35 x_a_347 <= 35
 c400: y_a_348 + 40 x_a_348 <= 40
 c401: y_a_349 + 14 x_a_349 <= 14
 c402: y_a_350 + 43 x_a_350 <= 43
 c403: y_a_351 + 25 x_a_351 <= 25
 c404: y_a_352 + 29 x_a_352 <= 29
 c405: y_a_353 + 42 x_a_353 <= 42
 c406: y_a_354 + 12 x_a_354 <= 12
 c407: y_a_355 + 40 x_a_355 <= 40
 c408: y_a_356 + 6 x_a_356 <= 6
 c409: y_a_357 + 34 x_a_357 <= 34
 c410: y_a_358 + 35 x_a_358 <= 35
 c411: y_a_359 + 18 x_a_359 <= 18
 c412: y_a_360 + 44 x_a_360 <= 44
 c413: y_a_361 + 15 x_a_361 <= 15
 c414: y_a_362 + 10 x_a_362 <= 10
 c415: y_a_363 + 46 x_a_363 <= 46
 c416: y_a_364 + 37 x_a_364 <= 37
 c417: y_a_365 + 22 x_a_365 <= 22
 c418: y_a_366 + 39 x_a_366 <= 39
 c419: y_a_367 + 47 x_a_367 <= 47
 c420: y_a_368 + 2 x_a_368 <= 2
 c421: y_a_369 + 13 x_a_369 <= 13
 c422: y_a_370 + 40 x_a_370 <= 40
 c423: y_a_371 + 41 x_a_371 <= 41
 c424: y_a_372 + 30 x_a_372 <= 30
 c425: y_a_373 + 23 x_a_373 <= 23
 c426: y_a_374 + 42 x_a_374 <= 42
 c427: y_a_375 + 29 x_a_375 <= 29
 c428: y_a_376 + 43 x_a_376 <= 43
 c429: y_a_377 + 6 x_a_377 <= 6
 c430: y_a_378 + 43 x_a_378 <= 43
 c431: y_a_379 + 11 x_a_379 <= 11
 c432: y_a_380 + 27 x_a_380 <= 27
 c433: y_a_381 + 7 x_a_381 <= 7
 c434: y_a_382 + 38 x_a_382 <= 38
 c435: y_a_383 + 50000000 x_a_383 <= 50000000
 c436: y_a_384 + 50000000 x_a_384 <= 50000000
 c437: y_a_385 + 50000000 x_a_385 <= 50000000
 c438: y_a_386 + 50000000 x_a_386 <= 50000000
 c439: y_a_387 + 50000000 x_a_387 <= 50000000
 c440: y_a_388 + 50000000 x_a_388 <= 50000000
 c441: y_a_389 + 50000000 x_a_389 <= 50000000
 c442: y_a_390 + 50000000 x_a_390 <= 50000000
 c443: y_a_391 + 50000000 x_a_391 <= 50000000
 c444: y_a_392 + 50000000 x_a_392 <= 50000000
 c445: y_a_393 + 50000000 x_a_393 <= 50000000
 c446: y_a_394 + 50000000 x_a_394 <= 50000000
 c447: y_a_395 + 50000000 x_a_395 <= 50000000
 c448: y_a_396 + 50000000 x_a_396 <= 50000000
 c449: y_a_397 + 50000000 x_a_397 <= 50000000
 c450: y_a_398 + 50000000 x_a_398 <= 50000000
 c451: y_a_399 + 50000000 x_a_399 <= 50000000
 c452: y_a_400 + 50000000 x_a_400 <= 50000000
 c453: y_a_401 + 50000000 x_a_401 <= 50000000
 c454: y_a_402 + 50000000 x_a_402 <= 50000000
 c455: y_a_403 + 10000 x_a_403 <= 10000
Bounds
 0 <= x_a_0 <= 1
 0 <= x_a_1 <= 1
 0 <= x_a_2 <= 1
 0 <= x_a_3 <= 1
 0 <= x_a_4 <= 1
 0 <= x_a_5 <= 1
 0 <= x_a_6 <= 1
 0 <= x_a_7 <= 1
 0 <= x_a_8 <= 1
 0 <= x_a_9 <= 1
 0 <= x_a_10 <= 1
 0 <= x_a_11 <= 1
 0 <= x_a_12 <= 1
 0 <= x_a_13 <= 1
 0 <= x_a_14 <= 1
 0 <= x_a_15 <= 1
 0 <= x_a_16 <= 1
 0 <= x_a_17 <= 1
 0 <= x_a_18 <= 1
 0 <= x_a_19 <= 1
 0 <= x_a_20 <= 1
 0 <= x_a_21 <= 1
 0 <= x_a_22 <= 1
 0 <= x_a_23 <= 1
 0 <= x_a_24 <= 1
 0 <= x_a_25 <= 1
 0 <= x_a_26 <= 1
 0 <= x_a_27 <= 1
 0 <= x_a_28 <= 1
 0 <= x_a_29 <= 1
 0 <= x_a_30 <= 1
 0 <= x_a_31 <= 1
 0 <= x_a_32 <= 1
 0 <= x_a_33 <= 1
 0 <= x_a_34 <= 1
 0 <= x_a_35 <= 1
 0 <= x_a_36 <= 1
 0 <= x_a_37 <= 1
 0 <= x_a_38 <= 1
 0 <= x_a_39 <= 1
 0 <= x_a_40 <= 1
 0 <= x_a_41 <= 1
 0 <= x_a_42 <= 1
 0 <= x_a_43 <= 1
 0 <= x_a_44 <= 1
 0 <= x_a_45 <= 1
 0 <= x_a_46 <= 1
 0 <= x_a_47 <= 1
 0 <= x_a_48 <= 1
 0 <= x_a_49 <= 1
 0 <= x_a_50 <= 1
 0 <= x_a_51 <= 1
 0 <= x_a_52 <= 1
 0 <= x_a_53 <= 1
 0 <= x_a_54 <= 1
 0 <= x_a_55 <= 1
 0 <= x_a_56 <= 1
 0 <= x_a_57 <= 1
 0 <= x_a_58 <= 1
 0 <= x_a_59 <= 1
 0 <= x_a_60 <= 1
 0 <= x_a_61 <= 1
 0 <= x_a_62 <= 1
 0 <= x_a_63 <= 1
 0 <= x_a_64 <= 1
 0 <= x_a_65 <= 1
 0 <= x_a_66 <= 1
 0 <= x_a_67 <= 1
 0 <= x_a_68 <= 1
 0 <= x_a_69 <= 1
 0 <= x_a_70 <= 1
 0 <= x_a_71 <= 1
 0 <= x_a_72 <= 1
 0 <= x_a_73 <= 1
 0 <= x_a_74 <= 1
 0 <= x_a_75 <= 1
 0 <= x_a_76 <= 1
 0 <= x_a_77 <= 1
 0 <= x_a_78 <= 1
 0 <= x_a_79 <= 1
 0 <= x_a_80 <= 1
 0 <= x_a_81 <= 1
 0 <= x_a_82 <= 1
 0 <= x_a_83 <= 1
 0 <= x_a_84 <= 1
 0 <= x_a_85 <= 1
 0 <= x_a_86 <= 1
 0 <= x_a_87 <= 1
 0 <= x_a_88 <= 1
 0 <= x_a_89 <= 1
 0 <= x_a_90 <= 1
 0 <= x_a_91 <= 1
 0 <= x_a_92 <= 1
 0 <= x_a_93 <= 1
 0 <= x_a_94 <= 1
 0 <= x_a_95 <= 1
 0 <= x_a_96 <= 1
 0 <= x_a_97 <= 1
 0 <= x_a_98 <= 1
 0 <= x_a_99 <= 1
 0 <= x_a_100 <= 1
 0 <= x_a_101 <= 1
 0 <= x_a_102 <= 1
 0 <= x_a_103 <= 1
 0 <= x_a_104 <= 1
 0 <= x_a_105 <= 1
 0 <= x_a_106 <= 1
 0 <= x_a_107 <= 1
 0 <= x_a_108 <= 1
 0 <= x_a_109 <= 1
 0 <= x_a_110 <= 1
 0 <= x_a_111 <= 1
 0 <= x_a_112 <= 1
 0 <= x_a_113 <= 1
 0 <= x_a_114 <= 1
 0 <= x_a_115 <= 1
 0 <= x_a_116 <= 1
 0 <= x_a_117 <= 1
 0 <= x_a_118 <= 1
 0 <= x_a_119 <= 1
 0 <= x_a_120 <= 1
 0 <= x_a_121 <= 1
 0 <= x_a_122 <= 1
 0 <= x_a_123 <= 1
 0 <= x_a_124 <= 1
 0 <= x_a_125 <= 1
 0 <= x_a_126 <= 1
 0 <= x_a_127 <= 1
 0 <= x_a_128 <= 1
 0 <= x_a_129 <= 1
 0 <= x_a_130 <= 1
 0 <= x_a_131 <= 1
 0 <= x_a_132 <= 1
 0 <= x_a_133 <= 1
 0 <= x_a_134 <= 1
 0 <= x_a_135 <= 1
 0 <= x_a_136 <= 1
 0 <= x_a_137 <= 1
 0 <= x_a_138 <= 1
 0 <= x_a_139 <= 1
 0 <= x_a_140 <= 1
 0 <= x_a_141 <= 1
 0 <= x_a_142 <= 1
 0 <= x_a_143 <= 1
 0 <= x_a_144 <= 1
 0 <= x_a_145 <= 1
 0 <= x_a_146 <= 1
 0 <= x_a_147 <= 1
 0 <= x_a_148 <= 1
 0 <= x_a_149 <= 1
 0 <= x_a_150 <= 1
 0 <= x_a_151 <= 1
 0 <= x_a_152 <= 1
 0 <= x_a_153 <= 1
 0 <= x_a_154 <= 1
 0 <= x_a_155 <= 1
 0 <= x_a_156 <= 1
 0 <= x_a_157 <= 1
 0 <= x_a_158 <= 1
 0 <= x_a_159 <= 1
 0 <= x_a_160 <= 1
 0 <= x_a_161 <= 1
 0 <= x_a_162 <= 1
 0 <= x_a_163 <= 1
 0 <= x_a_164 <= 1
 0 <= x_a_165 <= 1
 0 <= x_a_166 <= 1
 0 <= x_a_167 <= 1
 0 <= x_a_168 <= 1
 0 <= x_a_169 <= 1
 0 <= x_a_170 <= 1
 0 <= x_a_171 <= 1
 0 <= x_a_172 <= 1
 0 <= x_a_173 <= 1
 0 <= x_a_174 <= 1
 0 <= x_a_175 <= 1
 0 <= x_a_176 <= 1
 0 <= x_a_177 <= 1
 0 <= x_a_178 <= 1
 0 <= x_a_179 <= 1
 0 <= x_a_180 <= 1
 0 <= x_a_181 <= 1
 0 <= x_a_182 <= 1
 0 <= x_a_183 <= 1
 0 <= x_a_184 <= 1
 0 <= x_a_185 <= 1
 0 <= x_a_186 <= 1
 0 <= x_a_187 <= 1
 0 <= x_a_188 <= 1
 0 <= x_a_189 <= 1
 0 <= x_a_190 <= 1
 0 <= x_a_191 <= 1
 0 <= x_a_192 <= 1
 0 <= x_a_193 <= 1
 0 <= x_a_194 <= 1
 0 <= x_a_195 <= 1
 0 <= x_a_196 <= 1
 0 <= x_a_197 <= 1
 0 <= x_a_198 <= 1
 0 <= x_a_199 <= 1
 0 <= x_a_200 <= 1
 0 <= x_a_201 <= 1
 0 <= x_a_202 <= 1
 0 <= x_a_203 <= 1
 0 <= x_a_204 <= 1
 0 <= x_a_205 <= 1
 0 <= x_a_206 <= 1
 0 <= x_a_207 <= 1
 0 <= x_a_208 <= 1
 0 <= x_a_209 <= 1
 0 <= x_a_210 <= 1
 0 <= x_a_211 <= 1
 0 <= x_a_212 <= 1
 0 <= x_a_213 <= 1
 0 <= x_a_214 <= 1
 0 <= x_a_215 <= 1
 0 <= x_a_216 <= 1
 0 <= x_a_217 <= 1
 0 <= x_a_218 <= 1
 0 <= x_a_219 <= 1
 0 <= x_a_220 <= 1
 0 <= x_a_221 <= 1
 0 <= x_a_222 <= 1
 0 <= x_a_223 <= 1
 0 <= x_a_224 <= 1
 0 <= x_a_225 <= 1
 0 <= x_a_226 <= 1
 0 <= x_a_227 <= 1
 0 <= x_a_228 <= 1
 0 <= x_a_229 <= 1
 0 <= x_a_230 <= 1
 0 <= x_a_231 <= 1
 0 <= x_a_232 <= 1
 0 <= x_a_233 <= 1
 0 <= x_a_234 <= 1
 0 <= x_a_235 <= 1
 0 <= x_a_236 <= 1
 0 <= x_a_237 <= 1
 0 <= x_a_238 <= 1
 0 <= x_a_239 <= 1
 0 <= x_a_240 <= 1
 0 <= x_a_241 <= 1
 0 <= x_a_242 <= 1
 0 <= x_a_243 <= 1
 0 <= x_a_244 <= 1
 0 <= x_a_245 <= 1
 0 <= x_a_246 <= 1
 0 <= x_a_247 <= 1
 0 <= x_a_248 <= 1
 0 <= x_a_249 <= 1
 0 <= x_a_250 <= 1
 0 <= x_a_251 <= 1
 0 <= x_a_252 <= 1
 0 <= x_a_253 <= 1
 0 <= x_a_254 <= 1
 0 <= x_a_255 <= 1
 0 <= x_a_256 <= 1
 0 <= x_a_257 <= 1
 0 <= x_a_258 <= 1
 0 <= x_a_259 <= 1
 0 <= x_a_260 <= 1
 0 <= x_a_261 <= 1
 0 <= x_a_262 <= 1
 0 <= x_a_263 <= 1
 0 <= x_a_264 <= 1
 0 <= x_a_265 <= 1
 0 <= x_a_266 <= 1
 0 <= x_a_267 <= 1
 0 <= x_a_268 <= 1
 0 <= x_a_269 <= 1
 0 <= x_a_270 <= 1
 0 <= x_a_271 <= 1
 0 <= x_a_272 <= 1
 0 <= x_a_273 <= 1
 0 <= x_a_274 <= 1
 0 <= x_a_275 <= 1
 0 <= x_a_276 <= 1
 0 <= x_a_277 <= 1
 0 <= x_a_278 <= 1
 0 <= x_a_279 <= 1
 0 <= x_a_280 <= 1
 0 <= x_a_281 <= 1
 0 <= x_a_282 <= 1
 0 <= x_a_283 <= 1
 0 <= x_a_284 <= 1
 0 <= x_a_285 <= 1
 0 <= x_a_286 <= 1
 0 <= x_a_287 <= 1
 0 <= x_a_288 <= 1
 0 <= x_a_289 <= 1
 0 <= x_a_290 <= 1
 0 <= x_a_291 <= 1
 0 <= x_a_292 <= 1
 0 <= x_a_293 <= 1
 0 <= x_a_294 <= 1
 0 <= x_a_295 <= 1
 0 <= x_a_296 <= 1
 0 <= x_a_297 <= 1
 0 <= x_a_298 <= 1
 0 <= x_a_299 <= 1
 0 <= x_a_300 <= 1
 0 <= x_a_301 <= 1
 0 <= x_a_302 <= 1
 0 <= x_a_303 <= 1
 0 <= x_a_304 <= 1
 0 <= x_a_305 <= 1
 0 <= x_a_306 <= 1
 0 <= x_a_307 <= 1
 0 <= x_a_308 <= 1
 0 <= x_a_309 <= 1
 0 <= x_a_310 <= 1
 0 <= x_a_311 <= 1
 0 <= x_a_312 <= 1
 0 <= x_a_313 <= 1
 0 <= x_a_314 <= 1
 0 <= x_a_315 <= 1
 0 <= x_a_316 <= 1
 0 <= x_a_317 <= 1
 0 <= x_a_318 <= 1
 0 <= x_a_319 <= 1
 0 <= x_a_320 <= 1
 0 <= x_a_321 <= 1
 0 <= x_a_322 <= 1
 0 <= x_a_323 <= 1
 0 <= x_a_324 <= 1
 0 <= x_a_325 <= 1
 0 <= x_a_326 <= 1
 0 <= x_a_327 <= 1
 0 <= x_a_328 <= 1
 0 <= x_a_329 <= 1
 0 <= x_a_330 <= 1
 0 <= x_a_331 <= 1
 0 <= x_a_332 <= 1
 0 <= x_a_333 <= 1
 0 <= x_a_334 <= 1
 0 <= x_a_335 <= 1
 0 <= x_a_336 <= 1
 0 <= x_a_337 <= 1
 0 <= x_a_338 <= 1
 0 <= x_a_339 <= 1
 0 <= x_a_340 <= 1
 0 <= x_a_341 <= 1
 0 <= x_a_342 <= 1
 0 <= x_a_343 <= 1
 0 <= x_a_344 <= 1
 0 <= x_a_345 <= 1
 0 <= x_a_346 <= 1
 0 <= x_a_347 <= 1
 0 <= x_a_348 <= 1
 0 <= x_a_349 <= 1
 0 <= x_a_350 <= 1
 0 <= x_a_351 <= 1
 0 <= x_a_352 <= 1
 0 <= x_a_353 <= 1
 0 <= x_a_354 <= 1
 0 <= x_a_355 <= 1
 0 <= x_a_356 <= 1
 0 <= x_a_357 <= 1
 0 <= x_a_358 <= 1
 0 <= x_a_359 <= 1
 0 <= x_a_360 <= 1
 0 <= x_a_361 <= 1
 0 <= x_a_362 <= 1
 0 <= x_a_363 <= 1
 0 <= x_a_364 <= 1
 0 <= x_a_365 <= 1
 0 <= x_a_366 <= 1
 0 <= x_a_367 <= 1
 0 <= x_a_368 <= 1
 0 <= x_a_369 <= 1
 0 <= x_a_370 <= 1
 0 <= x_a_371 <= 1
 0 <= x_a_372 <= 1
 0 <= x_a_373 <= 1
 0 <= x_a_374 <= 1
 0 <= x_a_375 <= 1
 0 <= x_a_376 <= 1
 0 <= x_a_377 <= 1
 0 <= x_a_378 <= 1
 0 <= x_a_379 <= 1
 0 <= x_a_380 <= 1
 0 <= x_a_381 <= 1
 0 <= x_a_382 <= 1
 0 <= x_a_383 <= 1
 0 <= x_a_384 <= 1
 0 <= x_a_385 <= 1
 0 <= x_a_386 <= 1
 0 <= x_a_387 <= 1
 0 <= x_a_388 <= 1
 0 <= x_a_389 <= 1
 0 <= x_a_390 <= 1
 0 <= x_a_391 <= 1
 0 <= x_a_392 <= 1
 0 <= x_a_393 <= 1
 0 <= x_a_394 <= 1
 0 <= x_a_395 <= 1
 0 <= x_a_396 <= 1
 0 <= x_a_397 <= 1
 0 <= x_a_398 <= 1
 0 <= x_a_399 <= 1
 0 <= x_a_400 <= 1
 0 <= x_a_401 <= 1
 0 <= x_a_402 <= 1
 0 <= x_a_403 <= 1
Binaries
 x_a_0  x_a_1  x_a_2  x_a_3  x_a_4  x_a_5  x_a_6  x_a_7  x_a_8  x_a_9  x_a_10 
 x_a_11  x_a_12  x_a_13  x_a_14  x_a_15  x_a_16  x_a_17  x_a_18  x_a_19 
 x_a_20  x_a_21  x_a_22  x_a_23  x_a_24  x_a_25  x_a_26  x_a_27  x_a_28 
 x_a_29  x_a_30  x_a_31  x_a_32  x_a_33  x_a_34  x_a_35  x_a_36  x_a_37 
 x_a_38  x_a_39  x_a_40  x_a_41  x_a_42  x_a_43  x_a_44  x_a_45  x_a_46 
 x_a_47  x_a_48  x_a_49  x_a_50  x_a_51  x_a_52  x_a_53  x_a_54  x_a_55 
 x_a_56  x_a_57  x_a_58  x_a_59  x_a_60  x_a_61  x_a_62  x_a_63  x_a_64 
 x_a_65  x_a_66  x_a_67  x_a_68  x_a_69  x_a_70  x_a_71  x_a_72  x_a_73 
 x_a_74  x_a_75  x_a_76  x_a_77  x_a_78  x_a_79  x_a_80  x_a_81  x_a_82 
 x_a_83  x_a_84  x_a_85  x_a_86  x_a_87  x_a_88  x_a_89  x_a_90  x_a_91 
 x_a_92  x_a_93  x_a_94  x_a_95  x_a_96  x_a_97  x_a_98  x_a_99  x_a_100 
 x_a_101  x_a_102  x_a_103  x_a_104  x_a_105  x_a_106  x_a_107  x_a_108 
 x_a_109  x_a_110  x_a_111  x_a_112  x_a_113  x_a_114  x_a_115  x_a_116 
 x_a_117  x_a_118  x_a_119  x_a_120  x_a_121  x_a_122  x_a_123  x_a_124 
 x_a_125  x_a_126  x_a_127  x_a_128  x_a_129  x_a_130  x_a_131  x_a_132 
 x_a_133  x_a_134  x_a_135  x_a_136  x_a_137  x_a_138  x_a_139  x_a_140 
 x_a_141  x_a_142  x_a_143  x_a_144  x_a_145  x_a_146  x_a_147  x_a_148 
 x_a_149  x_a_150  x_a_151  x_a_152  x_a_153  x_a_154  x_a_155  x_a_156 
 x_a_157  x_a_158  x_a_159  x_a_160  x_a_161  x_a_162  x_a_163  x_a_164 
 x_a_165  x_a_166  x_a_167  x_a_168  x_a_169  x_a_170  x_a_171  x_a_172 
 x_a_173  x_a_174  x_a_175  x_a_176  x_a_177  x_a_178  x_a_179  x_a_180 
 x_a_181  x_a_182  x_a_183  x_a_184  x_a_185  x_a_186  x_a_187  x_a_188 
 x_a_189  x_a_190  x_a_191  x_a_192  x_a_193  x_a_194  x_a_195  x_a_196 
 x_a_197  x_a_198  x_a_199  x_a_200  x_a_201  x_a_202  x_a_203  x_a_204 
 x_a_205  x_a_206  x_a_207  x_a_208  x_a_209  x_a_210  x_a_211  x_a_212 
 x_a_213  x_a_214  x_a_215  x_a_216  x_a_217  x_a_218  x_a_219  x_a_220 
 x_a_221  x_a_222  x_a_223  x_a_224  x_a_225  x_a_226  x_a_227  x_a_228 
 x_a_229  x_a_230  x_a_231  x_a_232  x_a_233  x_a_234  x_a_235  x_a_236 
 x_a_237  x_a_238  x_a_239  x_a_240  x_a_241  x_a_242  x_a_243  x_a_244 
 x_a_245  x_a_246  x_a_247  x_a_248  x_a_249  x_a_250  x_a_251  x_a_252 
 x_a_253  x_a_254  x_a_255  x_a_256  x_a_257  x_a_258  x_a_259  x_a_260 
 x_a_261  x_a_262  x_a_263  x_a_264  x_a_265  x_a_266  x_a_267  x_a_268 
 x_a_269  x_a_270  x_a_271  x_a_272  x_a_273  x_a_274  x_a_275  x_a_276 
 x_a_277  x_a_278  x_a_279  x_a_280  x_a_281  x_a_282  x_a_283  x_a_284 
 x_a_285  x_a_286  x_a_287  x_a_288  x_a_289  x_a_290  x_a_291  x_a_292 
 x_a_293  x_a_294  x_a_295  x_a_296  x_a_297  x_a_298  x_a_299  x_a_300 
 x_a_301  x_a_302  x_a_303  x_a_304  x_a_305  x_a_306  x_a_307  x_a_308 
 x_a_309  x_a_310  x_a_311  x_a_312  x_a_313  x_a_314  x_a_315  x_a_316 
 x_a_317  x_a_318  x_a_319  x_a_320  x_a_321  x_a_322  x_a_323  x_a_324 
 x_a_325  x_a_326  x_a_327  x_a_328  x_a_329  x_a_330  x_a_331  x_a_332 
 x_a_333  x_a_334  x_a_335  x_a_336  x_a_337  x_a_338  x_a_339  x_a_340 
 x_a_341  x_a_342  x_a_343  x_a_344  x_a_345  x_a_346  x_a_347  x_a_348 
 x_a_349  x_a_350  x_a_351  x_a_352  x_a_353  x_a_354  x_a_355  x_a_356 
 x_a_357  x_a_358  x_a_359  x_a_360  x_a_361  x_a_362  x_a_363  x_a_364 
 x_a_365  x_a_366  x_a_367  x_a_368  x_a_369  x_a_370  x_a_371  x_a_372 
 x_a_373  x_a_374  x_a_375  x_a_376  x_a_377  x_a_378  x_a_379  x_a_380 
 x_a_381  x_a_382  x_a_383  x_a_384  x_a_385  x_a_386  x_a_387  x_a_388 
 x_a_389  x_a_390  x_a_391  x_a_392  x_a_393  x_a_394  x_a_395  x_a_396 
 x_a_397  x_a_398  x_a_399  x_a_400  x_a_401  x_a_402  x_a_403 
End
